%nprocshared=36
%mem=16GB
#p HSEH1PBE/Def2QZVPP opt(MaxCycles=100) freq scf(xqc, MaxConventional=200)

...

1 1
C         1.25977712360000   -0.00032618680000    0.01490171810000
P        -0.57594418530000    0.00011221200000   -0.04492863150000
H        -0.65776717840000   -1.50007402320000   -0.07731141470000
H        -0.88798187280000   -0.00023651020000    1.30774677620000
H        -0.65329062640000    1.50025374430000   -0.07729875530000
H         1.61628706180000   -0.90469772920000    0.50564229190000
H         1.61445105170000    0.88213236260000    0.54533111060000
H         1.65505018600000    0.02306089080000   -1.00099053900000

