%nprocshared=36
%mem=16GB
#p HSEH1PBE/Def2QZVPP opt(MaxCycles=100) freq scf(xqc, MaxConventional=200)

...

1 1
  N   -0.0008000    0.0005000    1.4759000
  C    0.0000000    0.0000000   -0.0208000
  C   -1.4553000   -0.0242000   -0.4857000
  C    0.7072000    1.2724000   -0.4851000
  C    0.7489000   -1.2486000   -0.4843000
  H   -0.4655000   -0.8356000    1.8558000
  H   -0.4928000    0.8209000    1.8553000
  H    0.9554000    0.0164000    1.8563000
  H   -2.0054000    0.8518000   -0.1235000
  H   -1.5161000   -0.0255000   -1.5798000
  H   -1.9762000   -0.9177000   -0.1230000
  H    1.7406000    1.3108000   -0.1219000
  H    0.1935000    2.1703000   -0.1229000
  H    0.7376000    1.3256000   -1.5791000
  H    0.2651000   -2.1627000   -0.1216000
  H    0.7810000   -1.3016000   -1.5783000
  H    1.7830000   -1.2527000   -0.1210000

