%nprocshared=36
%mem=16GB
#p HSEH1PBE/Def2QZVPP opt(MaxCycles=100) freq scf(xqc, MaxConventional=200)

...

1 2
C         0.56737276070000    0.51175629130000    0.01558892850000
C        -0.56737279120000   -0.51175643480000    0.01559039450000
N        -1.84878759780000    0.16930135370000   -0.06383565690000
N         1.84878798790000   -0.16930095520000   -0.06383592610000
H         0.46740336820000    1.15630569380000    0.90754182960000
H         0.46388216570000    1.14540103480000   -0.86791552660000
H        -0.46739798410000   -1.15628994190000    0.90755339560000
H        -0.46388556930000   -1.14541565990000   -0.86790519290000
H        -1.98689062030000    0.75402038560000    0.75455772390000
H        -2.60531233820000   -0.50511793500000   -0.09285826810000
H         1.98688402370000   -0.75402564510000    0.75455231720000
H         2.60531189770000    0.50511824000000   -0.09284474980000

